100
100
3000 3000 3000 3000 3000 3000 3000 3000 3000 3000 3000 3000 3000 3000 3000 3000 3000 3000 3000 3000 3000 3000 3000 3000 3000 3000 3000 3000 3000 3000 3000 3000 3000 3000 3000 3000 3000 3000 3000 3000 3000 3000 3000 3000 3000 3000 3000 3000 3000 3000 3000 3000 3000 3000 3000 3000 3000 3000 3000 3000 3000 3000 3000 3000 3000 3000 3000 3000 3000 3000 3000 3000 3000 3000 3000 3000 3000 3000 3000 3000 3000 3000 3000 3000 3000 3000 3000 3000 3000 3000 3000 3000 3000 3000 3000 3000 3000 3000 3000 3000
0 7 0
0 29 1
0 37 4
0 41 1
0 59 4
0 78 4
0 90 1
0 92 3
0 93 4
0 96 4
1 16 4
1 22 3
1 25 2
1 28 2
1 29 1
1 42 2
1 53 0
1 55 3
1 65 2
1 73 1
2 6 2
2 22 0
2 24 0
2 25 0
2 33 2
2 56 4
2 58 4
2 75 2
2 92 1
2 96 0
3 9 0
3 27 1
3 34 2
3 44 0
3 51 4
3 54 0
3 79 1
3 87 4
3 91 0
3 93 0
4 1 2
4 2 1
4 18 1
4 26 4
4 33 1
4 41 3
4 54 4
4 56 3
4 57 4
4 59 3
5 3 1
5 7 1
5 16 0
5 18 3
5 32 1
5 36 2
5 43 2
5 61 4
5 67 4
5 70 0
6 19 1
6 35 3
6 59 2
6 63 3
6 67 2
6 70 3
6 72 2
6 92 2
6 95 1
6 97 2
7 4 1
7 6 0
7 10 2
7 17 1
7 27 2
7 30 4
7 61 3
7 66 2
7 85 0
7 90 2
8 0 0
8 3 2
8 4 0
8 16 1
8 20 1
8 34 3
8 46 3
8 52 4
8 54 3
8 93 3
9 0 3
9 30 0
9 31 3
9 34 3
9 39 0
9 43 1
9 44 0
9 58 4
9 64 4
9 98 3
10 10 2
10 20 3
10 34 2
10 40 2
10 48 4
10 51 4
10 54 3
10 66 1
10 75 3
10 93 4
11 24 2
11 48 0
11 50 4
11 63 4
11 69 1
11 70 3
11 76 0
11 80 1
11 84 2
11 87 4
12 13 3
12 20 2
12 37 0
12 45 2
12 48 2
12 58 0
12 65 1
12 70 1
12 74 4
12 80 2
13 11 1
13 30 1
13 33 1
13 57 3
13 63 1
13 68 3
13 72 2
13 74 1
13 89 1
13 97 4
14 22 2
14 31 0
14 32 1
14 38 1
14 48 3
14 63 1
14 69 2
14 77 2
14 80 2
14 84 1
15 10 4
15 23 0
15 28 2
15 37 0
15 42 2
15 43 2
15 59 1
15 75 4
15 89 2
15 95 0
16 9 3
16 11 2
16 45 3
16 47 3
16 51 4
16 52 4
16 70 4
16 74 1
16 75 4
16 82 2
17 24 2
17 32 1
17 41 1
17 46 4
17 56 4
17 60 4
17 67 2
17 68 1
17 78 2
17 79 4
18 0 3
18 10 4
18 13 3
18 33 4
18 34 3
18 49 4
18 66 4
18 70 2
18 87 0
18 91 1
19 21 3
19 41 2
19 44 3
19 48 4
19 56 4
19 65 1
19 71 1
19 78 1
19 88 3
19 89 3
20 6 0
20 9 1
20 19 0
20 27 2
20 29 1
20 51 2
20 71 3
20 75 1
20 76 4
20 87 4
21 17 4
21 21 0
21 29 3
21 40 1
21 47 1
21 59 0
21 61 3
21 67 0
21 76 0
21 96 1
22 0 4
22 16 2
22 19 2
22 33 4
22 47 0
22 54 0
22 56 4
22 62 0
22 63 2
22 78 4
23 1 0
23 10 2
23 21 1
23 30 3
23 34 1
23 45 2
23 56 1
23 77 2
23 89 2
23 95 4
24 17 4
24 18 0
24 24 1
24 26 1
24 28 0
24 42 1
24 54 1
24 59 0
24 60 2
24 94 3
25 2 4
25 11 0
25 26 1
25 44 0
25 58 1
25 64 2
25 72 1
25 82 3
25 83 3
25 92 0
26 5 3
26 8 0
26 40 0
26 48 3
26 62 3
26 70 2
26 73 3
26 85 2
26 88 2
26 97 3
27 4 3
27 21 2
27 40 4
27 63 0
27 79 2
27 86 2
27 92 4
27 96 0
27 97 2
27 98 3
28 0 4
28 10 0
28 15 3
28 19 1
28 51 0
28 55 1
28 66 2
28 74 1
28 82 0
28 90 4
29 3 2
29 6 3
29 19 2
29 30 4
29 44 2
29 52 2
29 61 2
29 76 3
29 80 4
29 93 2
30 1 1
30 8 4
30 13 3
30 18 1
30 40 3
30 59 2
30 66 0
30 80 2
30 81 1
30 84 1
31 2 4
31 20 3
31 22 2
31 23 2
31 31 4
31 38 0
31 59 4
31 62 3
31 65 1
31 90 4
32 4 4
32 27 1
32 33 4
32 53 0
32 66 2
32 68 1
32 71 4
32 74 4
32 79 3
32 91 1
33 13 3
33 23 4
33 33 0
33 35 2
33 42 2
33 45 3
33 56 1
33 86 3
33 97 0
33 98 4
34 16 3
34 19 4
34 30 4
34 38 2
34 40 3
34 63 3
34 68 2
34 76 1
34 80 4
34 97 0
35 9 4
35 16 2
35 18 4
35 22 2
35 29 0
35 42 0
35 43 0
35 50 3
35 62 1
35 89 3
36 18 4
36 22 1
36 34 2
36 35 1
36 62 4
36 66 0
36 69 3
36 72 3
36 75 0
36 84 4
37 14 0
37 18 0
37 21 4
37 30 4
37 33 1
37 35 1
37 36 3
37 46 3
37 58 4
37 94 2
38 3 1
38 8 4
38 35 2
38 38 2
38 44 0
38 48 3
38 67 1
38 73 0
38 76 0
38 95 3
39 5 1
39 8 3
39 22 4
39 41 1
39 54 1
39 61 3
39 65 2
39 70 3
39 71 2
39 74 3
40 1 0
40 18 1
40 30 2
40 35 2
40 56 4
40 71 3
40 75 0
40 88 1
40 93 4
40 94 0
41 0 1
41 11 4
41 13 3
41 20 1
41 30 0
41 34 3
41 42 3
41 43 0
41 49 1
41 91 2
42 3 3
42 8 3
42 43 4
42 44 1
42 45 3
42 56 2
42 76 3
42 83 4
42 84 2
42 94 2
43 13 2
43 14 4
43 16 1
43 26 1
43 28 0
43 29 3
43 36 0
43 40 1
43 58 1
43 72 1
44 7 3
44 15 2
44 23 3
44 30 3
44 34 2
44 39 2
44 41 2
44 65 2
44 87 3
44 89 1
45 2 3
45 5 4
45 9 3
45 18 0
45 41 1
45 42 4
45 51 4
45 70 0
45 89 2
45 93 3
46 0 2
46 33 2
46 43 2
46 44 2
46 56 3
46 61 0
46 79 0
46 80 1
46 93 4
46 94 1
47 7 4
47 27 1
47 47 2
47 49 0
47 56 4
47 60 4
47 73 4
47 79 1
47 80 4
47 89 2
48 1 1
48 20 1
48 22 1
48 33 1
48 35 1
48 47 0
48 51 0
48 76 4
48 97 3
48 99 0
49 3 3
49 4 3
49 37 0
49 40 2
49 59 0
49 73 0
49 76 0
49 77 1
49 81 4
49 96 0
50 13 0
50 25 4
50 26 3
50 53 0
50 57 3
50 63 2
50 64 3
50 70 2
50 84 0
50 99 2
51 6 2
51 11 0
51 13 4
51 26 1
51 41 1
51 48 3
51 55 1
51 61 4
51 67 0
51 87 0
52 0 2
52 21 2
52 29 0
52 39 4
52 40 3
52 55 1
52 56 1
52 58 2
52 75 1
52 98 3
53 0 0
53 30 4
53 43 1
53 46 2
53 52 3
53 57 0
53 60 4
53 79 0
53 97 4
53 98 0
54 35 2
54 45 3
54 58 2
54 62 2
54 68 1
54 72 2
54 80 3
54 83 2
54 88 2
54 96 0
55 4 1
55 27 1
55 53 2
55 54 3
55 56 1
55 61 1
55 65 1
55 80 0
55 83 2
55 91 3
56 1 1
56 24 4
56 25 1
56 34 4
56 40 2
56 46 3
56 68 2
56 87 0
56 94 0
56 97 3
57 9 0
57 18 2
57 24 0
57 31 2
57 32 4
57 81 2
57 82 4
57 92 2
57 95 2
57 96 0
58 0 0
58 5 2
58 7 2
58 26 2
58 32 1
58 33 1
58 44 4
58 63 4
58 80 3
58 98 3
59 7 1
59 16 3
59 17 3
59 20 1
59 23 0
59 26 3
59 40 2
59 44 4
59 70 0
59 76 2
60 7 1
60 24 4
60 52 3
60 63 2
60 70 2
60 76 1
60 86 1
60 89 3
60 92 4
60 95 3
61 5 0
61 34 1
61 41 0
61 69 1
61 78 4
61 80 0
61 81 4
61 84 0
61 91 0
61 95 3
62 23 3
62 33 4
62 56 3
62 62 3
62 66 1
62 78 4
62 80 3
62 86 0
62 91 0
62 92 3
63 2 0
63 17 2
63 19 0
63 46 4
63 60 4
63 63 1
63 65 2
63 82 4
63 86 3
63 91 2
64 9 1
64 12 3
64 29 0
64 50 1
64 53 1
64 55 3
64 60 4
64 61 1
64 82 1
64 94 1
65 5 0
65 31 1
65 42 1
65 63 2
65 68 1
65 69 1
65 72 3
65 82 2
65 93 0
65 98 0
66 34 3
66 36 1
66 39 3
66 50 1
66 68 1
66 73 1
66 75 2
66 76 3
66 79 1
66 81 4
67 24 1
67 32 1
67 38 2
67 69 1
67 70 1
67 77 4
67 79 2
67 83 3
67 86 3
67 90 4
68 0 3
68 23 1
68 24 3
68 36 1
68 37 2
68 60 4
68 78 0
68 82 4
68 89 4
68 98 1
69 5 3
69 18 0
69 38 2
69 39 3
69 50 1
69 63 3
69 75 3
69 91 4
69 92 0
69 96 4
70 0 1
70 10 4
70 12 2
70 13 3
70 22 4
70 29 3
70 52 4
70 61 1
70 75 0
70 93 3
71 20 1
71 40 3
71 44 0
71 59 2
71 61 2
71 63 0
71 65 0
71 75 4
71 82 0
71 97 3
72 3 3
72 18 1
72 36 3
72 45 2
72 52 3
72 60 4
72 66 0
72 85 2
72 88 2
72 96 1
73 0 4
73 23 3
73 30 1
73 31 0
73 38 1
73 40 3
73 47 2
73 49 3
73 88 0
73 91 3
74 5 2
74 14 3
74 37 4
74 42 3
74 49 1
74 52 1
74 53 3
74 60 4
74 74 4
74 89 0
75 6 0
75 11 3
75 13 1
75 23 2
75 25 4
75 39 1
75 49 3
75 64 3
75 78 1
75 90 3
76 16 2
76 18 0
76 19 2
76 20 1
76 23 0
76 49 3
76 54 4
76 64 3
76 86 3
76 92 1
77 4 2
77 16 2
77 18 0
77 21 2
77 36 4
77 40 2
77 57 3
77 58 2
77 76 0
77 78 3
78 0 2
78 14 1
78 16 1
78 22 4
78 40 1
78 50 1
78 70 2
78 78 4
78 95 2
78 97 2
79 3 2
79 13 3
79 18 1
79 27 2
79 30 4
79 49 3
79 75 3
79 77 1
79 84 4
79 96 0
80 14 2
80 17 4
80 29 4
80 40 1
80 43 3
80 44 1
80 58 2
80 68 2
80 79 2
80 97 2
81 8 0
81 18 2
81 34 2
81 43 1
81 46 4
81 54 3
81 70 4
81 77 4
81 85 3
81 87 4
82 1 1
82 12 2
82 13 2
82 17 4
82 51 0
82 53 1
82 59 3
82 65 2
82 84 3
82 97 2
83 0 4
83 1 3
83 2 4
83 10 0
83 18 3
83 56 3
83 82 1
83 84 1
83 91 1
83 96 1
84 1 1
84 4 2
84 9 4
84 11 2
84 13 3
84 24 0
84 26 4
84 32 0
84 37 3
84 56 2
85 3 2
85 16 1
85 35 0
85 48 1
85 49 4
85 57 0
85 61 2
85 83 1
85 84 2
85 96 2
86 3 1
86 5 3
86 11 2
86 15 4
86 49 0
86 52 2
86 54 2
86 62 4
86 82 3
86 87 2
87 19 4
87 35 0
87 36 3
87 60 2
87 61 1
87 64 3
87 66 1
87 80 4
87 89 0
87 93 3
88 4 3
88 13 4
88 15 1
88 19 2
88 29 4
88 31 3
88 52 2
88 81 2
88 86 0
88 87 4
89 3 2
89 4 0
89 11 4
89 29 0
89 38 3
89 47 3
89 48 0
89 58 4
89 69 1
89 94 2
90 28 3
90 32 0
90 49 0
90 52 1
90 63 0
90 74 1
90 76 4
90 82 3
90 83 0
90 88 4
91 13 2
91 26 2
91 30 1
91 34 2
91 46 0
91 60 4
91 71 2
91 76 4
91 82 1
91 92 3
92 13 2
92 15 0
92 25 3
92 26 1
92 42 3
92 44 0
92 48 2
92 63 4
92 86 3
92 89 3
93 13 1
93 32 3
93 35 2
93 43 1
93 79 3
93 84 4
93 89 4
93 94 1
93 96 0
93 97 3
94 6 1
94 29 4
94 31 1
94 35 4
94 36 2
94 37 0
94 74 1
94 79 1
94 91 4
94 95 1
95 10 3
95 12 2
95 18 1
95 39 3
95 44 4
95 50 4
95 68 1
95 77 3
95 78 2
95 94 1
96 2 1
96 5 3
96 6 2
96 38 1
96 55 1
96 62 0
96 79 0
96 84 4
96 97 4
96 99 4
97 1 0
97 7 4
97 13 0
97 24 1
97 30 4
97 35 3
97 56 1
97 69 3
97 75 0
97 77 1
98 18 2
98 19 3
98 28 2
98 35 0
98 47 2
98 64 3
98 68 0
98 69 2
98 85 1
98 98 4
99 1 2
99 4 1
99 5 3
99 32 0
99 41 2
99 43 3
99 53 1
99 59 1
99 62 1
99 72 2
